
Gurobi 8.0.1 (win64, Python) logging started 10/14/18 23:25:03

Academic license - for non-commercial use only
Optimize a model with 29302 rows, 12637 columns and 87894 nonzeros
Variable types: 0 continuous, 12637 integer (12628 binary)
Coefficient statistics:
  Matrix range     [4e-01, 6e+05]
  Objective range  [2e+00, 8e+00]
  Bounds range     [1e+00, 1e+00]
  RHS range        [1e+00, 5e+06]
Presolve removed 4605 rows and 1947 columns
Presolve time: 0.45s
Presolved: 24697 rows, 10690 columns, 70346 nonzeros
Variable types: 0 continuous, 10690 integer (10674 binary)

Root relaxation: objective 1.236144e+03, 2247 iterations, 0.14 seconds

    Nodes    |    Current Node    |     Objective Bounds      |     Work
 Expl Unexpl |  Obj  Depth IntInf | Incumbent    BestBd   Gap | It/Node Time

H    0     0                    1236.1435371 4992.64800   304%     -    0s
     0     0          -    0      1236.14354 1236.14354  0.00%     -    1s

Explored 0 nodes (11203 simplex iterations) in 1.04 seconds
Thread count was 8 (of 8 available processors)

Solution count 1: 1236.14 

Optimal solution found (tolerance 1.00e-04)
Best objective 1.236143537069e+03, best bound 1.236143537069e+03, gap 0.0000%

Gurobi 8.0.1 (win64, Python) logging started 10/14/18 23:25:49

Academic license - for non-commercial use only
Optimize a model with 29302 rows, 12637 columns and 87894 nonzeros
Variable types: 0 continuous, 12637 integer (12628 binary)
Coefficient statistics:
  Matrix range     [4e-01, 6e+05]
  Objective range  [2e+00, 8e+00]
  Bounds range     [1e+00, 1e+00]
  RHS range        [1e+00, 5e+06]
Presolve removed 4605 rows and 1947 columns
Presolve time: 0.44s
Presolved: 24697 rows, 10690 columns, 70346 nonzeros
Variable types: 0 continuous, 10690 integer (10674 binary)

Root relaxation: objective 1.236144e+03, 2247 iterations, 0.12 seconds

    Nodes    |    Current Node    |     Objective Bounds      |     Work
 Expl Unexpl |  Obj  Depth IntInf | Incumbent    BestBd   Gap | It/Node Time

H    0     0                    1236.1435371 4992.64800   304%     -    0s
     0     0          -    0      1236.14354 1236.14354  0.00%     -    0s

Explored 0 nodes (11203 simplex iterations) in 1.02 seconds
Thread count was 8 (of 8 available processors)

Solution count 1: 1236.14 

Optimal solution found (tolerance 1.00e-04)
Best objective 1.236143537069e+03, best bound 1.236143537069e+03, gap 0.0000%

Gurobi 8.0.1 (win64, Python) logging started 10/14/18 23:26:03

Academic license - for non-commercial use only
Optimize a model with 29302 rows, 12637 columns and 87894 nonzeros
Variable types: 0 continuous, 12637 integer (12628 binary)
Coefficient statistics:
  Matrix range     [4e-01, 6e+05]
  Objective range  [2e+00, 8e+00]
  Bounds range     [1e+00, 1e+00]
  RHS range        [1e+00, 5e+06]
Presolve removed 4605 rows and 1947 columns
Presolve time: 0.42s
Presolved: 24697 rows, 10690 columns, 70346 nonzeros
Variable types: 0 continuous, 10690 integer (10674 binary)

Root relaxation: objective 1.236144e+03, 2247 iterations, 0.12 seconds

    Nodes    |    Current Node    |     Objective Bounds      |     Work
 Expl Unexpl |  Obj  Depth IntInf | Incumbent    BestBd   Gap | It/Node Time

H    0     0                    1236.1435371 4992.64800   304%     -    0s
     0     0          -    0      1236.14354 1236.14354  0.00%     -    0s

Explored 0 nodes (11203 simplex iterations) in 1.00 seconds
Thread count was 8 (of 8 available processors)

Solution count 1: 1236.14 

Optimal solution found (tolerance 1.00e-04)
Best objective 1.236143537069e+03, best bound 1.236143537069e+03, gap 0.0000%

Gurobi 8.0.1 (win64, Python) logging started 10/14/18 23:26:28

Academic license - for non-commercial use only
Optimize a model with 29302 rows, 12637 columns and 87894 nonzeros
Variable types: 0 continuous, 12637 integer (12628 binary)
Coefficient statistics:
  Matrix range     [4e-01, 6e+05]
  Objective range  [2e+00, 8e+00]
  Bounds range     [1e+00, 1e+00]
  RHS range        [1e+00, 5e+06]
Presolve removed 4605 rows and 1947 columns
Presolve time: 0.46s
Presolved: 24697 rows, 10690 columns, 70346 nonzeros
Variable types: 0 continuous, 10690 integer (10674 binary)

Root relaxation: objective 1.236144e+03, 2247 iterations, 0.13 seconds

    Nodes    |    Current Node    |     Objective Bounds      |     Work
 Expl Unexpl |  Obj  Depth IntInf | Incumbent    BestBd   Gap | It/Node Time

H    0     0                    1236.1435371 4992.64800   304%     -    0s
     0     0          -    0      1236.14354 1236.14354  0.00%     -    1s

Explored 0 nodes (11203 simplex iterations) in 1.10 seconds
Thread count was 8 (of 8 available processors)

Solution count 1: 1236.14 

Optimal solution found (tolerance 1.00e-04)
Best objective 1.236143537069e+03, best bound 1.236143537069e+03, gap 0.0000%

Gurobi 8.0.1 (win64, Python) logging started 10/14/18 23:27:29

Academic license - for non-commercial use only
Optimize a model with 29302 rows, 12637 columns and 87894 nonzeros
Variable types: 0 continuous, 12637 integer (12628 binary)
Coefficient statistics:
  Matrix range     [4e-01, 6e+05]
  Objective range  [2e+00, 8e+00]
  Bounds range     [1e+00, 1e+00]
  RHS range        [1e+00, 5e+06]
Presolve removed 4605 rows and 1947 columns
Presolve time: 0.43s
Presolved: 24697 rows, 10690 columns, 70346 nonzeros
Variable types: 0 continuous, 10690 integer (10674 binary)

Root relaxation: objective 1.236144e+03, 2247 iterations, 0.13 seconds

    Nodes    |    Current Node    |     Objective Bounds      |     Work
 Expl Unexpl |  Obj  Depth IntInf | Incumbent    BestBd   Gap | It/Node Time

H    0     0                    1236.1435371 4992.64800   304%     -    0s
     0     0          -    0      1236.14354 1236.14354  0.00%     -    0s

Explored 0 nodes (11203 simplex iterations) in 1.02 seconds
Thread count was 8 (of 8 available processors)

Solution count 1: 1236.14 

Optimal solution found (tolerance 1.00e-04)
Best objective 1.236143537069e+03, best bound 1.236143537069e+03, gap 0.0000%

Gurobi 8.0.1 (win64, Python) logging started 10/14/18 23:27:50

Academic license - for non-commercial use only
Optimize a model with 29302 rows, 12637 columns and 87894 nonzeros
Variable types: 0 continuous, 12637 integer (12628 binary)
Coefficient statistics:
  Matrix range     [4e-01, 6e+05]
  Objective range  [2e+00, 8e+00]
  Bounds range     [1e+00, 1e+00]
  RHS range        [1e+00, 5e+06]
Presolve removed 4605 rows and 1947 columns
Presolve time: 0.44s
Presolved: 24697 rows, 10690 columns, 70346 nonzeros
Variable types: 0 continuous, 10690 integer (10674 binary)

Root relaxation: objective 1.236144e+03, 2247 iterations, 0.13 seconds

    Nodes    |    Current Node    |     Objective Bounds      |     Work
 Expl Unexpl |  Obj  Depth IntInf | Incumbent    BestBd   Gap | It/Node Time

H    0     0                    1236.1435371 4992.64800   304%     -    0s
     0     0          -    0      1236.14354 1236.14354  0.00%     -    0s

Explored 0 nodes (11203 simplex iterations) in 1.01 seconds
Thread count was 8 (of 8 available processors)

Solution count 1: 1236.14 

Optimal solution found (tolerance 1.00e-04)
Best objective 1.236143537069e+03, best bound 1.236143537069e+03, gap 0.0000%

Gurobi 8.0.1 (win64, Python) logging started 10/14/18 23:28:04

Academic license - for non-commercial use only
Optimize a model with 29302 rows, 12637 columns and 87894 nonzeros
Variable types: 0 continuous, 12637 integer (12628 binary)
Coefficient statistics:
  Matrix range     [4e-01, 6e+05]
  Objective range  [2e+00, 8e+00]
  Bounds range     [1e+00, 1e+00]
  RHS range        [1e+00, 5e+06]
Presolve removed 4605 rows and 1947 columns
Presolve time: 0.43s
Presolved: 24697 rows, 10690 columns, 70346 nonzeros
Variable types: 0 continuous, 10690 integer (10674 binary)

Root relaxation: objective 1.236144e+03, 2247 iterations, 0.12 seconds

    Nodes    |    Current Node    |     Objective Bounds      |     Work
 Expl Unexpl |  Obj  Depth IntInf | Incumbent    BestBd   Gap | It/Node Time

H    0     0                    1236.1435371 4992.64800   304%     -    0s
     0     0          -    0      1236.14354 1236.14354  0.00%     -    0s

Explored 0 nodes (11203 simplex iterations) in 1.00 seconds
Thread count was 8 (of 8 available processors)

Solution count 1: 1236.14 

Optimal solution found (tolerance 1.00e-04)
Best objective 1.236143537069e+03, best bound 1.236143537069e+03, gap 0.0000%

Gurobi 8.0.1 (win64, Python) logging started 10/14/18 23:28:15

Academic license - for non-commercial use only
Optimize a model with 29302 rows, 12637 columns and 87894 nonzeros
Variable types: 0 continuous, 12637 integer (12628 binary)
Coefficient statistics:
  Matrix range     [4e-01, 6e+05]
  Objective range  [2e+00, 8e+00]
  Bounds range     [1e+00, 1e+00]
  RHS range        [1e+00, 5e+06]
Presolve removed 4605 rows and 1947 columns
Presolve time: 0.47s
Presolved: 24697 rows, 10690 columns, 70346 nonzeros
Variable types: 0 continuous, 10690 integer (10674 binary)

Root relaxation: objective 1.236144e+03, 2247 iterations, 0.14 seconds

    Nodes    |    Current Node    |     Objective Bounds      |     Work
 Expl Unexpl |  Obj  Depth IntInf | Incumbent    BestBd   Gap | It/Node Time

H    0     0                    1236.1435371 4992.64800   304%     -    0s
     0     0          -    0      1236.14354 1236.14354  0.00%     -    1s

Explored 0 nodes (11203 simplex iterations) in 1.14 seconds
Thread count was 8 (of 8 available processors)

Solution count 1: 1236.14 

Optimal solution found (tolerance 1.00e-04)
Best objective 1.236143537069e+03, best bound 1.236143537069e+03, gap 0.0000%

Gurobi 8.0.1 (win64, Python) logging started 10/14/18 23:29:03

Academic license - for non-commercial use only
Optimize a model with 29302 rows, 12637 columns and 87894 nonzeros
Variable types: 0 continuous, 12637 integer (12628 binary)
Coefficient statistics:
  Matrix range     [4e-01, 6e+05]
  Objective range  [2e+00, 8e+00]
  Bounds range     [1e+00, 1e+00]
  RHS range        [1e+00, 5e+06]
Presolve removed 4605 rows and 1947 columns
Presolve time: 0.47s
Presolved: 24697 rows, 10690 columns, 70346 nonzeros
Variable types: 0 continuous, 10690 integer (10674 binary)

Root relaxation: objective 1.236144e+03, 2247 iterations, 0.12 seconds

    Nodes    |    Current Node    |     Objective Bounds      |     Work
 Expl Unexpl |  Obj  Depth IntInf | Incumbent    BestBd   Gap | It/Node Time

H    0     0                    1236.1435371 4992.64800   304%     -    0s
     0     0          -    0      1236.14354 1236.14354  0.00%     -    1s

Explored 0 nodes (11203 simplex iterations) in 1.06 seconds
Thread count was 8 (of 8 available processors)

Solution count 1: 1236.14 

Optimal solution found (tolerance 1.00e-04)
Best objective 1.236143537069e+03, best bound 1.236143537069e+03, gap 0.0000%

Gurobi 8.0.1 (win64, Python) logging started 10/14/18 23:29:26

Academic license - for non-commercial use only
Optimize a model with 29302 rows, 12637 columns and 87894 nonzeros
Variable types: 0 continuous, 12637 integer (12628 binary)
Coefficient statistics:
  Matrix range     [4e-01, 6e+05]
  Objective range  [2e+00, 8e+00]
  Bounds range     [1e+00, 1e+00]
  RHS range        [1e+00, 5e+06]
Presolve removed 4605 rows and 1947 columns
Presolve time: 0.45s
Presolved: 24697 rows, 10690 columns, 70346 nonzeros
Variable types: 0 continuous, 10690 integer (10674 binary)

Root relaxation: objective 1.236144e+03, 2247 iterations, 0.13 seconds

    Nodes    |    Current Node    |     Objective Bounds      |     Work
 Expl Unexpl |  Obj  Depth IntInf | Incumbent    BestBd   Gap | It/Node Time

H    0     0                    1236.1435371 4992.64800   304%     -    0s
     0     0          -    0      1236.14354 1236.14354  0.00%     -    1s

Explored 0 nodes (11203 simplex iterations) in 1.06 seconds
Thread count was 8 (of 8 available processors)

Solution count 1: 1236.14 

Optimal solution found (tolerance 1.00e-04)
Best objective 1.236143537069e+03, best bound 1.236143537069e+03, gap 0.0000%

Gurobi 8.0.1 (win64, Python) logging started 10/14/18 23:32:22

Academic license - for non-commercial use only
Optimize a model with 29302 rows, 12637 columns and 87894 nonzeros
Variable types: 0 continuous, 12637 integer (12628 binary)
Coefficient statistics:
  Matrix range     [4e-01, 6e+05]
  Objective range  [2e+00, 8e+00]
  Bounds range     [1e+00, 1e+00]
  RHS range        [1e+00, 5e+06]
Presolve removed 4605 rows and 1947 columns
Presolve time: 0.45s
Presolved: 24697 rows, 10690 columns, 70346 nonzeros
Variable types: 0 continuous, 10690 integer (10674 binary)

Root relaxation: objective 1.236144e+03, 2247 iterations, 0.13 seconds

    Nodes    |    Current Node    |     Objective Bounds      |     Work
 Expl Unexpl |  Obj  Depth IntInf | Incumbent    BestBd   Gap | It/Node Time

H    0     0                    1236.1435371 4992.64800   304%     -    0s
     0     0          -    0      1236.14354 1236.14354  0.00%     -    1s

Explored 0 nodes (11203 simplex iterations) in 1.06 seconds
Thread count was 8 (of 8 available processors)

Solution count 1: 1236.14 

Optimal solution found (tolerance 1.00e-04)
Best objective 1.236143537069e+03, best bound 1.236143537069e+03, gap 0.0000%

Gurobi 8.0.1 (win64, Python) logging started 10/14/18 23:32:50

Academic license - for non-commercial use only
Optimize a model with 29302 rows, 12637 columns and 87894 nonzeros
Variable types: 0 continuous, 12637 integer (12628 binary)
Coefficient statistics:
  Matrix range     [4e-01, 6e+05]
  Objective range  [2e+00, 8e+00]
  Bounds range     [1e+00, 1e+00]
  RHS range        [1e+00, 5e+06]
Presolve removed 4605 rows and 1947 columns
Presolve time: 0.47s
Presolved: 24697 rows, 10690 columns, 70346 nonzeros
Variable types: 0 continuous, 10690 integer (10674 binary)

Root relaxation: objective 1.236144e+03, 2247 iterations, 0.12 seconds

    Nodes    |    Current Node    |     Objective Bounds      |     Work
 Expl Unexpl |  Obj  Depth IntInf | Incumbent    BestBd   Gap | It/Node Time

H    0     0                    1236.1435371 4992.64800   304%     -    0s
     0     0          -    0      1236.14354 1236.14354  0.00%     -    1s

Explored 0 nodes (11203 simplex iterations) in 1.06 seconds
Thread count was 8 (of 8 available processors)

Solution count 1: 1236.14 

Optimal solution found (tolerance 1.00e-04)
Best objective 1.236143537069e+03, best bound 1.236143537069e+03, gap 0.0000%

Gurobi 8.0.1 (win64, Python) logging started 10/14/18 23:33:07

Academic license - for non-commercial use only
Optimize a model with 29302 rows, 12637 columns and 87894 nonzeros
Variable types: 0 continuous, 12637 integer (12628 binary)
Coefficient statistics:
  Matrix range     [4e-01, 6e+05]
  Objective range  [2e+00, 8e+00]
  Bounds range     [1e+00, 1e+00]
  RHS range        [1e+00, 5e+06]
Presolve removed 4605 rows and 1947 columns
Presolve time: 0.44s
Presolved: 24697 rows, 10690 columns, 70346 nonzeros
Variable types: 0 continuous, 10690 integer (10674 binary)

Root relaxation: objective 1.236144e+03, 2247 iterations, 0.12 seconds

    Nodes    |    Current Node    |     Objective Bounds      |     Work
 Expl Unexpl |  Obj  Depth IntInf | Incumbent    BestBd   Gap | It/Node Time

H    0     0                    1236.1435371 4992.64800   304%     -    0s
     0     0          -    0      1236.14354 1236.14354  0.00%     -    0s

Explored 0 nodes (11203 simplex iterations) in 1.03 seconds
Thread count was 8 (of 8 available processors)

Solution count 1: 1236.14 

Optimal solution found (tolerance 1.00e-04)
Best objective 1.236143537069e+03, best bound 1.236143537069e+03, gap 0.0000%

Gurobi 8.0.1 (win64, Python) logging started 10/14/18 23:34:17

Academic license - for non-commercial use only
Optimize a model with 29302 rows, 12637 columns and 87894 nonzeros
Variable types: 0 continuous, 12637 integer (12628 binary)
Coefficient statistics:
  Matrix range     [4e-01, 6e+05]
  Objective range  [2e+00, 8e+00]
  Bounds range     [1e+00, 1e+00]
  RHS range        [1e+00, 5e+06]
Presolve removed 4605 rows and 1947 columns
Presolve time: 0.43s
Presolved: 24697 rows, 10690 columns, 70346 nonzeros
Variable types: 0 continuous, 10690 integer (10674 binary)

Root relaxation: objective 1.236144e+03, 2247 iterations, 0.12 seconds

    Nodes    |    Current Node    |     Objective Bounds      |     Work
 Expl Unexpl |  Obj  Depth IntInf | Incumbent    BestBd   Gap | It/Node Time

H    0     0                    1236.1435371 4992.64800   304%     -    0s
     0     0          -    0      1236.14354 1236.14354  0.00%     -    0s

Explored 0 nodes (11203 simplex iterations) in 1.03 seconds
Thread count was 8 (of 8 available processors)

Solution count 1: 1236.14 

Optimal solution found (tolerance 1.00e-04)
Best objective 1.236143537069e+03, best bound 1.236143537069e+03, gap 0.0000%

Gurobi 8.0.1 (win64, Python) logging started 10/14/18 23:34:56

Academic license - for non-commercial use only
Optimize a model with 29302 rows, 12637 columns and 87894 nonzeros
Variable types: 0 continuous, 12637 integer (12628 binary)
Coefficient statistics:
  Matrix range     [4e-01, 6e+05]
  Objective range  [2e+00, 8e+00]
  Bounds range     [1e+00, 1e+00]
  RHS range        [1e+00, 5e+06]
Presolve removed 4605 rows and 1947 columns
Presolve time: 0.45s
Presolved: 24697 rows, 10690 columns, 70346 nonzeros
Variable types: 0 continuous, 10690 integer (10674 binary)

Root relaxation: objective 1.236144e+03, 2247 iterations, 0.13 seconds

    Nodes    |    Current Node    |     Objective Bounds      |     Work
 Expl Unexpl |  Obj  Depth IntInf | Incumbent    BestBd   Gap | It/Node Time

H    0     0                    1236.1435371 4992.64800   304%     -    0s
     0     0          -    0      1236.14354 1236.14354  0.00%     -    0s

Explored 0 nodes (11203 simplex iterations) in 1.04 seconds
Thread count was 8 (of 8 available processors)

Solution count 1: 1236.14 

Optimal solution found (tolerance 1.00e-04)
Best objective 1.236143537069e+03, best bound 1.236143537069e+03, gap 0.0000%

Gurobi 8.0.1 (win64, Python) logging started 10/14/18 23:35:29

Academic license - for non-commercial use only
Optimize a model with 29302 rows, 12637 columns and 87894 nonzeros
Variable types: 0 continuous, 12637 integer (12628 binary)
Coefficient statistics:
  Matrix range     [4e-01, 6e+05]
  Objective range  [2e+00, 8e+00]
  Bounds range     [1e+00, 1e+00]
  RHS range        [1e+00, 5e+06]
Presolve removed 4605 rows and 1947 columns
Presolve time: 0.44s
Presolved: 24697 rows, 10690 columns, 70346 nonzeros
Variable types: 0 continuous, 10690 integer (10674 binary)

Root relaxation: objective 1.236144e+03, 2247 iterations, 0.12 seconds

    Nodes    |    Current Node    |     Objective Bounds      |     Work
 Expl Unexpl |  Obj  Depth IntInf | Incumbent    BestBd   Gap | It/Node Time

H    0     0                    1236.1435371 4992.64800   304%     -    0s
     0     0          -    0      1236.14354 1236.14354  0.00%     -    0s

Explored 0 nodes (11203 simplex iterations) in 1.03 seconds
Thread count was 8 (of 8 available processors)

Solution count 1: 1236.14 

Optimal solution found (tolerance 1.00e-04)
Best objective 1.236143537069e+03, best bound 1.236143537069e+03, gap 0.0000%

Gurobi 8.0.1 (win64, Python) logging started 10/14/18 23:36:23

Academic license - for non-commercial use only
Optimize a model with 29302 rows, 12637 columns and 87894 nonzeros
Variable types: 0 continuous, 12637 integer (12628 binary)
Coefficient statistics:
  Matrix range     [4e-01, 6e+05]
  Objective range  [2e+00, 8e+00]
  Bounds range     [1e+00, 1e+00]
  RHS range        [1e+00, 5e+06]
Presolve removed 4605 rows and 1947 columns
Presolve time: 0.54s
Presolved: 24697 rows, 10690 columns, 70346 nonzeros
Variable types: 0 continuous, 10690 integer (10674 binary)

Root relaxation: objective 1.236144e+03, 2247 iterations, 0.15 seconds

    Nodes    |    Current Node    |     Objective Bounds      |     Work
 Expl Unexpl |  Obj  Depth IntInf | Incumbent    BestBd   Gap | It/Node Time

H    0     0                    1236.1435371 4992.64800   304%     -    0s
     0     0          -    0      1236.14354 1236.14354  0.00%     -    1s

Explored 0 nodes (11203 simplex iterations) in 1.13 seconds
Thread count was 8 (of 8 available processors)

Solution count 1: 1236.14 

Optimal solution found (tolerance 1.00e-04)
Best objective 1.236143537069e+03, best bound 1.236143537069e+03, gap 0.0000%

Gurobi 8.0.1 (win64, Python) logging started 10/14/18 23:39:14

Academic license - for non-commercial use only
Optimize a model with 29302 rows, 12637 columns and 87894 nonzeros
Variable types: 0 continuous, 12637 integer (12628 binary)
Coefficient statistics:
  Matrix range     [4e-01, 6e+05]
  Objective range  [2e+00, 8e+00]
  Bounds range     [1e+00, 1e+00]
  RHS range        [1e+00, 5e+06]
Presolve removed 4605 rows and 1947 columns
Presolve time: 0.46s
Presolved: 24697 rows, 10690 columns, 70346 nonzeros
Variable types: 0 continuous, 10690 integer (10674 binary)

Root relaxation: objective 1.236144e+03, 2247 iterations, 0.14 seconds

    Nodes    |    Current Node    |     Objective Bounds      |     Work
 Expl Unexpl |  Obj  Depth IntInf | Incumbent    BestBd   Gap | It/Node Time

H    0     0                    1236.1435371 4992.64800   304%     -    0s
     0     0          -    0      1236.14354 1236.14354  0.00%     -    1s

Explored 0 nodes (11203 simplex iterations) in 1.08 seconds
Thread count was 8 (of 8 available processors)

Solution count 1: 1236.14 

Optimal solution found (tolerance 1.00e-04)
Best objective 1.236143537069e+03, best bound 1.236143537069e+03, gap 0.0000%

Gurobi 8.0.1 (win64, Python) logging started 10/14/18 23:40:26

Academic license - for non-commercial use only
Optimize a model with 29302 rows, 12637 columns and 87894 nonzeros
Variable types: 0 continuous, 12637 integer (12628 binary)
Coefficient statistics:
  Matrix range     [4e-01, 6e+05]
  Objective range  [2e+00, 8e+00]
  Bounds range     [1e+00, 1e+00]
  RHS range        [1e+00, 5e+06]
Presolve removed 4605 rows and 1947 columns
Presolve time: 0.45s
Presolved: 24697 rows, 10690 columns, 70346 nonzeros
Variable types: 0 continuous, 10690 integer (10674 binary)

Root relaxation: objective 1.236144e+03, 2247 iterations, 0.13 seconds

    Nodes    |    Current Node    |     Objective Bounds      |     Work
 Expl Unexpl |  Obj  Depth IntInf | Incumbent    BestBd   Gap | It/Node Time

H    0     0                    1236.1435371 4992.64800   304%     -    0s
     0     0          -    0      1236.14354 1236.14354  0.00%     -    0s

Explored 0 nodes (11203 simplex iterations) in 1.03 seconds
Thread count was 8 (of 8 available processors)

Solution count 1: 1236.14 

Optimal solution found (tolerance 1.00e-04)
Best objective 1.236143537069e+03, best bound 1.236143537069e+03, gap 0.0000%

Gurobi 8.0.1 (win64, Python) logging started 10/14/18 23:40:44

Academic license - for non-commercial use only
Optimize a model with 29302 rows, 12637 columns and 87894 nonzeros
Variable types: 0 continuous, 12637 integer (12628 binary)
Coefficient statistics:
  Matrix range     [4e-01, 6e+05]
  Objective range  [2e+00, 8e+00]
  Bounds range     [1e+00, 1e+00]
  RHS range        [1e+00, 5e+06]
Presolve removed 4605 rows and 1947 columns
Presolve time: 0.47s
Presolved: 24697 rows, 10690 columns, 70346 nonzeros
Variable types: 0 continuous, 10690 integer (10674 binary)

Root relaxation: objective 1.236144e+03, 2247 iterations, 0.12 seconds

    Nodes    |    Current Node    |     Objective Bounds      |     Work
 Expl Unexpl |  Obj  Depth IntInf | Incumbent    BestBd   Gap | It/Node Time

H    0     0                    1236.1435371 4992.64800   304%     -    0s
     0     0          -    0      1236.14354 1236.14354  0.00%     -    1s

Explored 0 nodes (11203 simplex iterations) in 1.04 seconds
Thread count was 8 (of 8 available processors)

Solution count 1: 1236.14 

Optimal solution found (tolerance 1.00e-04)
Best objective 1.236143537069e+03, best bound 1.236143537069e+03, gap 0.0000%

Gurobi 8.0.1 (win64, Python) logging started 10/14/18 23:40:57

Academic license - for non-commercial use only
Optimize a model with 29302 rows, 12637 columns and 87894 nonzeros
Variable types: 0 continuous, 12637 integer (12628 binary)
Coefficient statistics:
  Matrix range     [4e-01, 6e+05]
  Objective range  [2e+00, 8e+00]
  Bounds range     [1e+00, 1e+00]
  RHS range        [1e+00, 5e+06]
Presolve removed 4605 rows and 1947 columns
Presolve time: 0.50s
Presolved: 24697 rows, 10690 columns, 70346 nonzeros
Variable types: 0 continuous, 10690 integer (10674 binary)

Root relaxation: objective 1.236144e+03, 2247 iterations, 0.13 seconds

    Nodes    |    Current Node    |     Objective Bounds      |     Work
 Expl Unexpl |  Obj  Depth IntInf | Incumbent    BestBd   Gap | It/Node Time

H    0     0                    1236.1435371 4992.64800   304%     -    0s
     0     0          -    0      1236.14354 1236.14354  0.00%     -    1s

Explored 0 nodes (11203 simplex iterations) in 1.11 seconds
Thread count was 8 (of 8 available processors)

Solution count 1: 1236.14 

Optimal solution found (tolerance 1.00e-04)
Best objective 1.236143537069e+03, best bound 1.236143537069e+03, gap 0.0000%

Gurobi 8.0.1 (win64, Python) logging started 10/14/18 23:41:28

Academic license - for non-commercial use only
Optimize a model with 29302 rows, 12637 columns and 87894 nonzeros
Variable types: 0 continuous, 12637 integer (12628 binary)
Coefficient statistics:
  Matrix range     [4e-01, 6e+05]
  Objective range  [2e+00, 8e+00]
  Bounds range     [1e+00, 1e+00]
  RHS range        [1e+00, 5e+06]
Presolve removed 4605 rows and 1947 columns
Presolve time: 0.66s
Presolved: 24697 rows, 10690 columns, 70346 nonzeros
Variable types: 0 continuous, 10690 integer (10674 binary)

Root relaxation: objective 1.236144e+03, 2247 iterations, 0.15 seconds

    Nodes    |    Current Node    |     Objective Bounds      |     Work
 Expl Unexpl |  Obj  Depth IntInf | Incumbent    BestBd   Gap | It/Node Time

H    0     0                    1236.1435371 4992.64800   304%     -    0s
     0     0          -    0      1236.14354 1236.14354  0.00%     -    1s

Explored 0 nodes (11203 simplex iterations) in 1.41 seconds
Thread count was 8 (of 8 available processors)

Solution count 1: 1236.14 

Optimal solution found (tolerance 1.00e-04)
Best objective 1.236143537069e+03, best bound 1.236143537069e+03, gap 0.0000%

Gurobi 8.0.1 (win64, Python) logging started 10/14/18 23:42:30

Academic license - for non-commercial use only
Optimize a model with 29302 rows, 12637 columns and 87894 nonzeros
Variable types: 0 continuous, 12637 integer (12628 binary)
Coefficient statistics:
  Matrix range     [4e-01, 6e+05]
  Objective range  [2e+00, 8e+00]
  Bounds range     [1e+00, 1e+00]
  RHS range        [1e+00, 5e+06]
Presolve removed 4605 rows and 1947 columns
Presolve time: 0.43s
Presolved: 24697 rows, 10690 columns, 70346 nonzeros
Variable types: 0 continuous, 10690 integer (10674 binary)

Root relaxation: objective 1.236144e+03, 2247 iterations, 0.12 seconds

    Nodes    |    Current Node    |     Objective Bounds      |     Work
 Expl Unexpl |  Obj  Depth IntInf | Incumbent    BestBd   Gap | It/Node Time

H    0     0                    1236.1435371 4992.64800   304%     -    0s
     0     0          -    0      1236.14354 1236.14354  0.00%     -    1s

Explored 0 nodes (11203 simplex iterations) in 1.07 seconds
Thread count was 8 (of 8 available processors)

Solution count 1: 1236.14 

Optimal solution found (tolerance 1.00e-04)
Best objective 1.236143537069e+03, best bound 1.236143537069e+03, gap 0.0000%
Warning: variable name "assigned_to_community[0,Barros Arana]" has a space
Warning: constraint name "r3[Barros Arana]" has a space
Warning: default variable names used to write mps file
Warning: default constraint names used to write mps file

Gurobi 8.0.1 (win64, Python) logging started 10/14/18 23:42:49

Academic license - for non-commercial use only
Optimize a model with 29302 rows, 12637 columns and 87894 nonzeros
Variable types: 0 continuous, 12637 integer (12628 binary)
Coefficient statistics:
  Matrix range     [4e-01, 6e+05]
  Objective range  [2e+00, 8e+00]
  Bounds range     [1e+00, 1e+00]
  RHS range        [1e+00, 5e+06]
Presolve removed 4605 rows and 1947 columns
Presolve time: 0.54s
Presolved: 24697 rows, 10690 columns, 70346 nonzeros
Variable types: 0 continuous, 10690 integer (10674 binary)

Root relaxation: objective 1.236144e+03, 2247 iterations, 0.14 seconds

    Nodes    |    Current Node    |     Objective Bounds      |     Work
 Expl Unexpl |  Obj  Depth IntInf | Incumbent    BestBd   Gap | It/Node Time

H    0     0                    1236.1435371 4992.64800   304%     -    0s
     0     0          -    0      1236.14354 1236.14354  0.00%     -    1s

Explored 0 nodes (11203 simplex iterations) in 1.16 seconds
Thread count was 8 (of 8 available processors)

Solution count 1: 1236.14 

Optimal solution found (tolerance 1.00e-04)
Best objective 1.236143537069e+03, best bound 1.236143537069e+03, gap 0.0000%

Gurobi 8.0.1 (win64, Python) logging started 10/14/18 23:42:58

Academic license - for non-commercial use only
Optimize a model with 29302 rows, 12637 columns and 87894 nonzeros
Variable types: 0 continuous, 12637 integer (12628 binary)
Coefficient statistics:
  Matrix range     [4e-01, 6e+05]
  Objective range  [2e+00, 8e+00]
  Bounds range     [1e+00, 1e+00]
  RHS range        [1e+00, 5e+06]
Presolve removed 4605 rows and 1947 columns
Presolve time: 0.51s
Presolved: 24697 rows, 10690 columns, 70346 nonzeros
Variable types: 0 continuous, 10690 integer (10674 binary)

Root relaxation: objective 1.236144e+03, 2247 iterations, 0.17 seconds

    Nodes    |    Current Node    |     Objective Bounds      |     Work
 Expl Unexpl |  Obj  Depth IntInf | Incumbent    BestBd   Gap | It/Node Time

H    0     0                    1236.1435371 4992.64800   304%     -    0s
     0     0          -    0      1236.14354 1236.14354  0.00%     -    1s

Explored 0 nodes (11203 simplex iterations) in 1.21 seconds
Thread count was 8 (of 8 available processors)

Solution count 1: 1236.14 

Optimal solution found (tolerance 1.00e-04)
Best objective 1.236143537069e+03, best bound 1.236143537069e+03, gap 0.0000%
Warning: variable name "assigned_to_community[0,Barros Arana]" has a space
Warning: constraint name "r3[Barros Arana]" has a space
Warning: to let Gurobi read it back, use rlp format

Gurobi 8.0.1 (win64, Python) logging started 10/14/18 23:43:58

Academic license - for non-commercial use only
Optimize a model with 29302 rows, 12637 columns and 87894 nonzeros
Variable types: 0 continuous, 12637 integer (12628 binary)
Coefficient statistics:
  Matrix range     [4e-01, 6e+05]
  Objective range  [2e+00, 8e+00]
  Bounds range     [1e+00, 1e+00]
  RHS range        [1e+00, 5e+06]
Presolve removed 4605 rows and 1947 columns
Presolve time: 0.54s
Presolved: 24697 rows, 10690 columns, 70346 nonzeros
Variable types: 0 continuous, 10690 integer (10674 binary)

Root relaxation: objective 1.236144e+03, 2247 iterations, 0.13 seconds

    Nodes    |    Current Node    |     Objective Bounds      |     Work
 Expl Unexpl |  Obj  Depth IntInf | Incumbent    BestBd   Gap | It/Node Time

H    0     0                    1236.1435371 4992.64800   304%     -    0s
     0     0          -    0      1236.14354 1236.14354  0.00%     -    1s

Explored 0 nodes (11203 simplex iterations) in 1.17 seconds
Thread count was 8 (of 8 available processors)

Solution count 1: 1236.14 

Optimal solution found (tolerance 1.00e-04)
Best objective 1.236143537069e+03, best bound 1.236143537069e+03, gap 0.0000%

Gurobi 8.0.1 (win64, Python) logging started 10/14/18 23:44:26

Academic license - for non-commercial use only
Optimize a model with 29302 rows, 12637 columns and 87894 nonzeros
Variable types: 0 continuous, 12637 integer (12628 binary)
Coefficient statistics:
  Matrix range     [4e-01, 6e+05]
  Objective range  [2e+00, 8e+00]
  Bounds range     [1e+00, 1e+00]
  RHS range        [1e+00, 5e+06]
Presolve removed 4605 rows and 1947 columns
Presolve time: 0.44s
Presolved: 24697 rows, 10690 columns, 70346 nonzeros
Variable types: 0 continuous, 10690 integer (10674 binary)

Root relaxation: objective 1.236144e+03, 2247 iterations, 0.14 seconds

    Nodes    |    Current Node    |     Objective Bounds      |     Work
 Expl Unexpl |  Obj  Depth IntInf | Incumbent    BestBd   Gap | It/Node Time

H    0     0                    1236.1435371 4992.64800   304%     -    0s
     0     0          -    0      1236.14354 1236.14354  0.00%     -    1s

Explored 0 nodes (11203 simplex iterations) in 1.09 seconds
Thread count was 8 (of 8 available processors)

Solution count 1: 1236.14 

Optimal solution found (tolerance 1.00e-04)
Best objective 1.236143537069e+03, best bound 1.236143537069e+03, gap 0.0000%
Warning: variable name "assigned_to_community[0,Barros Arana]" has a space
Warning: default variable names used to write solution file
